(set-logic ALL)
(declare-fun var0 () String)
(assert (str.in_re var0 (re.++ (re.* (re.* (str.to_re "00"))) (re.++ (re.* (re.+ (str.to_re "11"))) (re.++ (re.* (re.union (str.to_re "22") (str.to_re "3"))) (re.++ (re.* (re.+ (str.to_re "4"))) (re.++ (re.+ (re.* (str.to_re "5"))) (re.++ (re.union (re.+ (str.to_re "666")) (re.+ (str.to_re "77"))) (re.++ (re.* (re.* (str.to_re "8"))) (re.++ (re.union (re.* (str.to_re "99")) (re.* (str.to_re "aa"))) (re.++ (re.+ (re.+ (str.to_re "bb"))) (re.++ (re.union (re.+ (str.to_re "c")) (re.+ (str.to_re "ddd"))) (re.++ (re.* (re.union (str.to_re "eee") (str.to_re "f"))) (re.++ (re.* (re.union (str.to_re "gg") (str.to_re "hh"))) (re.++ (re.+ (re.+ (str.to_re "iii"))) (re.++ (re.+ (re.+ (str.to_re "jjj"))) (re.++ (re.* (re.union (str.to_re "kkk") (str.to_re "ll"))) (re.++ (re.+ (re.union (str.to_re "m") (str.to_re "n"))) (re.++ (re.* (re.+ (str.to_re "o"))) (re.++ (re.union (re.+ (str.to_re "pp")) (re.+ (str.to_re "q"))) (re.++ (re.* (re.* (str.to_re "rr"))) (re.++ (re.union (re.union (str.to_re "sss") (str.to_re "t")) (re.union (str.to_re "uuu") (str.to_re "v"))) (re.++ (re.* (re.union (str.to_re "www") (str.to_re "xxx"))) (re.++ (re.+ (re.+ (str.to_re "yy"))) (re.++ (re.* (re.+ (str.to_re "z"))) (re.++ (re.* (re.* (str.to_re "AA"))) (re.++ (re.+ (re.* (str.to_re "BBB"))) (re.++ (re.union (re.+ (str.to_re "C")) (re.+ (str.to_re "DDD"))) (re.++ (re.union (re.union (str.to_re "EEE") (str.to_re "FF")) (re.union (str.to_re "GGG") (str.to_re "HHH"))) (re.++ (re.union (re.+ (str.to_re "I")) (re.+ (str.to_re "JJ"))) (re.++ (re.+ (re.* (str.to_re "KKK"))) (re.++ (re.union (re.+ (str.to_re "LLL")) (re.+ (str.to_re "M"))) (re.++ (re.union (re.union (str.to_re "N") (str.to_re "OOO")) (re.union (str.to_re "PP") (str.to_re "Q"))) (re.++ (re.union (re.+ (str.to_re "RR")) (re.+ (str.to_re "SSS"))) (re.++ (re.* (re.union (str.to_re "TT") (str.to_re "UU"))) (re.++ (re.union (re.union (str.to_re "V") (str.to_re "WWW")) (re.union (str.to_re "X") (str.to_re "Y"))) (re.++ (re.+ (re.* (str.to_re "Z"))) (re.++ (re.union (re.union (str.to_re "!!") (str.to_re """""""")) (re.union (str.to_re "###") (str.to_re "$$$"))) (re.++ (re.union (re.* (str.to_re "%")) (re.* (str.to_re "&"))) (re.++ (re.* (re.+ (str.to_re "''"))) (re.++ (re.union (re.+ (str.to_re "((")) (re.+ (str.to_re ")))"))) (re.++ (re.+ (re.* (str.to_re "*"))) (re.++ (re.+ (re.union (str.to_re "+++") (str.to_re ","))) (re.++ (re.union (re.* (str.to_re "-")) (re.* (str.to_re ".."))) (re.union (re.* (str.to_re "//")) (re.* (str.to_re "::")))))))))))))))))))))))))))))))))))))))))))))))
(check-sat)